Instance name : lr205
Authors       : Geir Hasle, Oddvar Kloster
Date          : 11.03.2003 22:16:30
Reference     : Chapter in G. Hasle, K-A Lie, E. Quak (eds): Geometric Modelling, Numerical Simulation, and Optimization. ISBN 978-3-540-68782-5, Springer 2007.
Solution
Route  1 : 95 59 92 14 42 15 72 39 67 23 75 21 2 87 98 85 44 38 86 16 61 84 8 10 90 32 49 46 17 60 96 97 37 100 91 93 13 58
Route  2 : 27 28 12 76 33 71 65 78 29 79 81 101 51 30 20 66 9 35 34 3 50 26
Route  3 : 5 83 45 82 47 36 64 63 11 19 62 7 88 31 69 52 18 99 6 94 53 40 73 22 41 43 57 74 56 4 25 55 54 24 80 68 102 77 1 70 48 89
